
  32    4
  10   10   10   10

   0   0   0   0   0   3 2 5 6 
   5   1   0   1   1   3 13 12 3 
   9   6   0   6   3   2 15 4 
   4   0   1   4   2   4 31 30 14 7 
   9   2   0   2   6   3 30 14 7 
   7   6   0   3   3   3 30 14 7 
   7   0   2   4   4   3 21 19 8 
   4   3   0   3   4   3 22 18 9 
   7   4   6   9   0   2 26 10 
   6   0   5   2   3   3 27 25 11 
  10   0   2   4   3   3 29 28 16 
   4   3   3   0   5   3 27 26 16 
   3   5   5   0   3   3 31 18 17 
   3   4   1   0   8   3 24 23 21 
   7   5   5   0   3   3 26 23 20 
   5   0   5   5   2   1 17 
   3   3   3   2   0   2 23 20 
   2   4   6   7   0   2 23 20 
   1   4   8   6   0   2 25 23 
   3   3   3   0   3   1 24 
   4   3   0   2   6   1 25 
   6   8   5   4   0   1 25 
   3   3   6   6   0   1 32
   2   0   6   5   4   1 32
   1   4   0   3   5   1 32
   3   4   0   5   3   1 32
   6   3   7   0   7   1 32
   8   4   3   0   6   1 32
   1   6   1   1   0   1 32
   2   0   1   2   4   1 32
   2   0   4   6   4   1 32
   0   0   0   0   0   0 
